0000000000000000
0000000000000000
0000001101000000
0000011111000000
0000111111100000
0000001111110000
0000000011110000
0000000001110000
0000000001110000
0000000001110000
0000000001111000
0000000001100000
0000000000100000
0000000000000000
0000000000000000
0000000000000000
